tps_eleves/tps_eleves/linear_prog/question12/question12_local.lp-pulp.mps
*SENSE:Minimize
NAME          MODEL
ROWS
 N  OBJ
 E  C0000000
 E  C0000001
 E  C0000002
 E  C0000003
 E  C0000004
 E  C0000005
 E  C0000006
 E  C0000007
 E  C0000008
 E  C0000009
 E  C0000010
 E  C0000011
COLUMNS
    X0000000  C0000001   1.000000000000e+00
    X0000000  C0000002   1.000000000000e+00
    X0000001  C0000004   1.000000000000e+00
    X0000001  C0000005   1.000000000000e+00
    X0000002  C0000007   1.000000000000e+00
    X0000002  C0000008   1.000000000000e+00
    X0000003  C0000010   1.000000000000e+00
    X0000003  C0000011   1.000000000000e+00
    X0000004  C0000000   2.000000000000e+00
    X0000004  C0000002  -1.000000000000e+00
    X0000005  C0000003   2.000000000000e+00
    X0000005  C0000005  -1.000000000000e+00
    X0000006  C0000006   2.000000000000e+00
    X0000006  C0000008  -1.000000000000e+00
    X0000007  C0000009   2.000000000000e+00
    X0000007  C0000011  -1.000000000000e+00
    X0000008  C0000000   1.000000000000e+00
    X0000008  C0000003  -1.000000000000e+00
    X0000009  C0000003   1.000000000000e+00
    X0000009  C0000006  -1.000000000000e+00
    X0000010  C0000006   1.000000000000e+00
    X0000010  C0000009  -1.000000000000e+00
    X0000011  C0000009   1.000000000000e+00
    X0000012  C0000000   1.500000000000e+00
    X0000012  C0000002  -1.000000000000e+00
    X0000013  C0000003   1.500000000000e+00
    X0000013  C0000005  -1.000000000000e+00
    X0000014  C0000006   1.500000000000e+00
    X0000014  C0000008  -1.000000000000e+00
    X0000015  C0000009   1.500000000000e+00
    X0000015  C0000011  -1.000000000000e+00
    X0000016  C0000001   1.000000000000e+00
    X0000016  OBJ        3.200000000000e+02
    X0000017  C0000004   1.000000000000e+00
    X0000017  OBJ        3.200000000000e+02
    X0000018  C0000007   1.000000000000e+00
    X0000018  OBJ        3.200000000000e+02
    X0000019  C0000010   1.000000000000e+00
    X0000019  OBJ        3.200000000000e+02
    X0000020  C0000002   1.000000000000e+00
    X0000020  OBJ       -1.600000000000e+02
    X0000021  C0000005   1.000000000000e+00
    X0000021  OBJ       -1.600000000000e+02
    X0000022  C0000008   1.000000000000e+00
    X0000022  OBJ       -2.133400000000e+02
    X0000023  C0000011   1.000000000000e+00
    X0000023  OBJ       -1.600000000000e+02
RHS
    RHS       C0000000   0.000000000000e+00
    RHS       C0000001   5.000000000000e+01
    RHS       C0000002   3.500000000000e+02
    RHS       C0000003   0.000000000000e+00
    RHS       C0000004   2.500000000000e+01
    RHS       C0000005   0.000000000000e+00
    RHS       C0000006   0.000000000000e+00
    RHS       C0000007   2.500000000000e+01
    RHS       C0000008   0.000000000000e+00
    RHS       C0000009   0.000000000000e+00
    RHS       C0000010   5.000000000000e+01
    RHS       C0000011   5.000000000000e+01
BOUNDS
 UP BND       X0000000   5.000000000000e+01
 UP BND       X0000001   2.500000000000e+01
 UP BND       X0000002   2.500000000000e+01
 UP BND       X0000003   5.000000000000e+01
 UP BND       X0000004   2.000000000000e+02
 UP BND       X0000005   2.000000000000e+02
 UP BND       X0000006   2.000000000000e+02
 UP BND       X0000007   2.000000000000e+02
 UP BND       X0000008   3.000000000000e+02
 UP BND       X0000009   3.000000000000e+02
 UP BND       X0000010   3.000000000000e+02
 UP BND       X0000011   3.000000000000e+02
 LO BND       X0000012  -2.000000000000e+02
 UP BND       X0000012   0.000000000000e+00
 LO BND       X0000013  -2.000000000000e+02
 UP BND       X0000013   0.000000000000e+00
 LO BND       X0000014  -2.000000000000e+02
 UP BND       X0000014   0.000000000000e+00
 LO BND       X0000015  -2.000000000000e+02
 UP BND       X0000015   0.000000000000e+00
 UP BND       X0000016   5.000000000000e+01
 UP BND       X0000017   2.500000000000e+01
 UP BND       X0000018   2.500000000000e+01
 UP BND       X0000019   5.000000000000e+01
 UP BND       X0000020   5.500000000000e+02
 UP BND       X0000021   2.000000000000e+02
 UP BND       X0000022   2.000000000000e+02
 UP BND       X0000023   2.500000000000e+02
ENDATA
