tps_eleves/tps_eleves/linear_prog/question12/question12_local.lp-pulp.sol
Optimal - objective value -37334.00000000
      0 C0000000               0              -106.66667
      1 C0000001              50                     320
      2 C0000002             350                    -160
      3 C0000003               0                 -106.67
      4 C0000004              25                     320
      5 C0000005               0                 -213.34
      6 C0000006               0                 -106.67
      7 C0000007              25                     320
      8 C0000008               0                 -213.34
      9 C0000009               0                     -80
     10 C0000010              50                     320
     11 C0000011              50                    -160
      0 X0000000              50                    -160
      1 X0000001              25                 -106.66
      2 X0000002              25                 -106.66
      3 X0000003              50                    -160
      4 X0000004               0               53.333333
      5 X0000005              25                       0
      6 X0000006             125                       0
      7 X0000007               0                       0
      8 X0000008             300           -0.0033333333
      9 X0000009             250                       0
     10 X0000010               0                   26.67
     11 X0000011               0                      80
     12 X0000012            -200                       0
     13 X0000013               0                 -53.335
     14 X0000014               0                 -53.335
     15 X0000015               0                     -40
     16 X0000016               0                       0
     17 X0000017               0                       0
     18 X0000018               0                       0
     19 X0000019               0                       0
     20 X0000020             100                       0
     21 X0000021               0                   53.34
     22 X0000022             100                       0
     23 X0000023               0                       0
